p td 120 120
0 86
0 30
0 20
0 98
1 45
2 24
4 23
4 84
6 23
6 43
7 61
7 9
8 24
8 100
10 70
11 36
11 108
11 39
11 81
12 24
12 57
13 102
13 20
13 37
13 24
14 52
14 113
15 95
16 103
16 107
16 115
17 47
17 55
17 32
18 41
21 55
21 63
22 59
23 94
25 106
25 113
25 43
25 39
25 52
25 47
25 28
26 64
28 103
28 113
29 86
30 40
31 89
31 36
31 108
31 117
31 109
32 107
33 92
33 50
34 95
36 44
36 64
37 80
38 66
39 70
41 79
41 83
42 53
43 93
43 116
45 88
47 73
47 85
48 108
49 61
49 52
51 114
54 90
54 111
56 94
56 109
57 73
57 88
58 100
59 92
59 67
59 90
60 92
60 103
60 119
61 100
61 115
63 66
66 103
68 107
69 103
74 113
75 93
79 115
79 119
82 106
82 93
83 114
85 87
86 89
88 93
91 114
91 99
91 103
92 117
92 94
94 117
94 115
95 106
96 117
97 108
97 102
101 108
106 119
111 119
